c DESCRIPTION: Custom graph saved 12/03/2024, 19:46:13
c
p edge 17 70
e 1 2
e 1 5
e 1 7
e 1 8
e 1 10
e 1 11
e 1 12
e 1 13
e 1 14
e 2 3
e 2 4
e 2 5
e 2 6
e 2 7
e 2 8
e 2 9
e 2 11
e 2 12
e 2 13
e 2 15
e 2 16
e 3 5
e 3 8
e 3 9
e 3 11
e 3 13
e 3 14
e 3 15
e 3 17
e 4 6
e 4 7
e 4 12
e 4 13
e 4 14
e 4 16
e 4 17
e 5 6
e 5 9
e 5 11
e 5 12
e 5 13
e 5 16
e 6 7
e 6 8
e 6 13
e 6 15
e 6 17
e 7 8
e 7 13
e 7 15
e 7 16
e 7 17
e 8 9
e 8 10
e 8 14
e 8 15
e 9 12
e 9 13
e 9 15
e 9 17
e 10 12
e 10 17
e 11 13
e 11 15
e 12 15
e 12 16
e 12 17
e 13 16
e 14 15
e 14 16